c
p cnf 11 37
8 -7 0
2 1 0
-5 -10 0
-8 5 0
5 11 0
6 -11 0
-9 8 0
11 5 0
-4 -9 0
-7 -4 0
-11 -1 0
10 9 0
-2 -7 0
-5 -9 0
-6 -1 0
-10 -1 0
-8 -4 0
-10 -9 0
1 6 0
-6 -4 0
-2 4 0
7 3 0
1 -10 0
9 -4 0
-11 -6 0
-8 -6 0
-11 2 0
-8 7 0
-4 3 0
1 8 0
6 9 0
-2 8 0
-10 5 0
4 -3 0
5 8 0
-1 11 0
3 -6 0
